NAME          hamck26e (cycles with Dantzig and EXPAND)
ROWS
 L  R1
 L  R2
 L  R3
 L  R4
 N  COST
COLUMNS
    X1        R1        0.4            R2        -7.8
    X1        R3        1.             COST      -2.3
    X2        R1        0.2            R2        -1.4
    X2        R4        1.             COST      -2.15
    X3        R1        -1.4           R2        7.8
    X3        COST      13.55
    X4        R1        -0.2           R2        0.4
    X4        COST      0.4
RHS
    b         R3        1.             R4        1.
ENDATA